NAME: kroA100
DIMENSION: 16
EDGE_WEIGHT_TYPE: EUC_2D
NODE_COORD_SECTION
1 1380 939
2 2848 96
3 3510 1671
4 457 334
5 3888 666
6 984 965
7 2721 1482
8 1286 525
9 2716 1432
10 738 1325
11 1251 1832
12 2728 1698
13 3815 169
14 3683 1533
15 1247 1945
16 123 862
ACCEPTED_PROBABILITIES
0.0
0.69
0.96
0.86
0.62
0.41
0.11
0.02
0.37
0.53
0.12
0.32
0.98
0.48
0.44
0.25
OUTSOURCING_COSTS
0.0
140.55
61.6
83.95
143.28
161.28
42.35
67.78
60.38
15.0
11.02
141.17
23.46
122.36
39.51
69.33
